85 9 12 3 77 99 10 15 58 29 26 17 7 38 20 84 70 94 74 36 90 92 33 43 6 91 49 40 32 79 81 30 37 2 56 45 1 57 60 27 82 73 19 97 51 52 39 13 54 4 47 71 63 93 42 87 5 67 75 66 16 24 65 98 18 95 64 68 88 41 8 22 89 53 48 55 72 0 86 80 50 62 44 23 76 96 35 25 28 11 83 69 59 31 46 21 34 61 14 78 

